#
 
title
 
0  1
C     -2.8887000    -0.3380000     0.3021000
H     -3.1066000     0.4118000     1.0736001
H     -3.8580999    -0.7687000     0.0278000
C     -2.0536001    -1.4826000     0.9327000
H     -1.7846000    -2.2033000     0.1553000
H     -2.7160001    -2.0137000     1.6303000
C     -2.3360000     0.3633000    -0.9608000
H     -3.1977999     0.7420000    -1.5211000
H     -1.8533000    -0.3737000    -1.6089000
C     -0.8425000    -0.9871000     1.6684000
H     -1.0630000    -0.1644000     2.3485999
C      0.0150000     1.1838000    -0.3518000
C      0.6724000     1.5221000     0.7676000
C      1.8929000     0.7427000     1.2010000
H      2.5989001     1.3917000     1.7307000
H      2.4131999     0.3259000     0.3389000
C      0.4449000    -1.3304000     1.5409000
C      0.1666000     2.5390000     1.7592000
H     -0.7321000     3.0580001     1.4284000
H      0.9368000     3.2972000     1.9412000
H     -0.0513000     2.0790000     2.7304001
O      0.5864000     0.2389000    -1.2153000
C      1.2830000     0.8145000    -2.3153999
H      0.6782000     1.6055000    -2.7837999
H      2.2049999     1.3001000    -1.9601001
C      1.6213000    -0.2192000    -3.3454001
H      2.2153001     0.1593000    -4.1752000
C      1.2582000    -1.4960001    -3.3127000
H      1.5437000    -2.1802001    -4.1033001
H      0.6689000    -1.8900000    -2.4944999
C      0.9612000    -2.4598000     0.6897000
H      0.1627000    -3.0156000     0.1971000
H      1.5279000    -3.1687000     1.3052000
H      1.6402000    -2.0882001    -0.0836000
C     -1.3756000     1.5704000    -0.7826000
H     -1.3260000     2.0827999    -1.7527000
H     -1.8148000     2.2851000    -0.0843000
C      1.4922000    -0.4336000     2.1642001
H      1.1128000    -0.0092000     3.0983000
H      2.4007001    -0.9919000     2.4143000
